5

    11    64    83    89    27
    34    97    91    2    40
    26    68    86    2    12
    49    95    91    72    61
    61    71    2    86    57

    0    26    64    76    30
    26    0    12    8    60
    64    12    0    94    57
    76    8    94    0    26
    30    60    57    26    0

    67    30    63    7    85
    56    72    14    54    55
    3    23    68    94    81
    45    9    31    74    39
    10    34    68    88    6
